1612812
36,8,4,0,34,97,100,43,42,84,60,31,94,5,29,102,55,47,20,12,92,95,41,107,32,77,105,54,67,39,7,27,35,11,59,64,70,96,88,90,10,48,38,30,85,26,68,69,13,46,103,63,21,57,53,101,104,98,6,87,17,49,75,72,18,61,86,99,52,16,79,73,91,3,78,19,62,2,82,24,93,80,1,50,83,58,45,106,15,28,51,33,81,44,89,108,23,66,22,14,9,76,65,40,37,71,74,56,25,36